17	4
27	24	18	23	
0	0	0	0	0	3	2	3	4	
9	0	0	4	0	3	6	7	15	
2	1	6	1	0	1	5	
7	0	5	0	5	1	8	
4	0	2	0	0	1	17	
175	4	8	0	7	3	9	13	14	
150	7	0	3	4	1	16	
75	4	0	9	6	1	16	
150	2	2	5	0	3	10	17	17	
175	0	4	1	9	3	11	16	17	
175	0	0	0	1	2	12	17	
75	3	3	0	0	3	17	17	17	
9	1	0	3	0	2	17	17	
6	10	0	0	3	1	17	
5	7	0	5	0	3	17	17	17	
7	10	0	0	0	1	17	
0	0	0	0	0	0	
